RT is False
Default write of storage_offers_DA.csv just to have a file (but constraint should be inactive)
Reading model...
...model read.
creating competitive generators file...
...competitive generators recorded.
Loading data...
.. day-ahead data with real-time VRE data read.
Compiling instance...
...instance created.
Creating Offer Mitigation (model will solve as dispatch if TRUE)...
NOTE: storage offers will not be mitigated
...storage offer mitigation file created
Converting model to MPEC...
...converted
NOTE: initial MIP solve with only storage competitive to get feasible solution
Solving...

Welcome to IBM(R) ILOG(R) CPLEX(R) Interactive Optimizer 12.9.0.0
  with Simplex, Mixed Integer & Barrier Optimizers
5725-A06 5725-A29 5724-Y48 5724-Y49 5724-Y54 5724-Y55 5655-Y21
Copyright IBM Corp. 1988, 2019.  All Rights Reserved.

Type 'help' for a list of available commands.
Type 'help' followed by a command name for more
information on commands.

CPLEX> Logfile 'cplex.log' closed.
Logfile 'C:\Users\llavin\Desktop\test826\logs\tmpn49kj85a.cplex.log' open.
CPLEX> New value for parallel optimization mode: -1
CPLEX> New value for emphasis for MIP optimization: 1
CPLEX> New value for mixed integer optimality gap tolerance: 0.01
CPLEX> New value for integrality tolerance: 1e-12
CPLEX> New value for deterministic time limit in ticks: 75000
CPLEX> Problem 'C:\Users\llavin\Desktop\test826\logs\tmpgxi0aasu.pyomo.lp' read.
Read time = 0.22 sec. (13.92 ticks)
CPLEX> Problem name         : C:\Users\llavin\Desktop\test826\logs\tmpgxi0aasu.pyomo.lp
Objective sense      : Maximize
Variables            :   53809  [Nneg: 1,  Box: 22004,  Free: 4464,
                                 Binary: 27340]
Objective nonzeros   :    8980
Linear constraints   :  123253  [Less: 41346,  Greater: 59096,  Equal: 22811]
  Nonzeros           :  293289
  RHS nonzeros       :   67491

Variables            : Min LB: -5000.000        Max UB: 1000000.       
Objective nonzeros   : Min   : 0.3083333        Max   : 832.3333       
Linear constraints   :
  Nonzeros           : Min   : 0.3083333        Max   : 1000000.       
  RHS nonzeros       : Min   : 0.3083333        Max   : 1000000.       
CPLEX> CPXPARAM_Parallel                                -1
CPXPARAM_Emphasis_MIP                            1
CPXPARAM_DetTimeLimit                            75000
CPXPARAM_MIP_Tolerances_MIPGap                   0.01
CPXPARAM_MIP_Tolerances_Integrality              9.9999999999999998e-13
Tried aggregator 4 times.
MIP Presolve eliminated 88667 rows and 18923 columns.
MIP Presolve added 3404 rows and 0 columns.
MIP Presolve modified 24902 coefficients.
Aggregator did 13035 substitutions.
Reduced MIP has 24955 rows, 21295 columns, and 71195 nonzeros.
Reduced MIP has 8414 binaries, 0 generals, 0 SOSs, and 0 indicators.
Presolve time = 0.31 sec. (193.96 ticks)
Probing fixed 387 vars, tightened 3949 bounds.
Probing time = 0.08 sec. (19.12 ticks)
Tried aggregator 2 times.
MIP Presolve eliminated 874 rows and 774 columns.
MIP Presolve modified 3037 coefficients.
Aggregator did 24 substitutions.
Reduced MIP has 24057 rows, 20497 columns, and 68601 nonzeros.
Reduced MIP has 8027 binaries, 0 generals, 0 SOSs, and 0 indicators.
Presolve time = 0.11 sec. (87.59 ticks)
Probing fixed 0 vars, tightened 306 bounds.
Probing time = 0.14 sec. (22.94 ticks)
Clique table members: 44785.
MIP emphasis: integer feasibility.
MIP search method: dynamic search.
Parallel mode: opportunistic, using up to 32 threads.
Root relaxation solution time = 0.38 sec. (578.42 ticks)

        Nodes                                         Cuts/
   Node  Left     Objective  IInf  Best Integer    Best Bound    ItCnt     Gap

      0     0     2979.5451    69                   2979.5451     4829         
*     0+    0                         2818.7481     2979.5451             5.70%
      0     0        cutoff           2818.7481                   4832     --- 
Elapsed time = 1.63 sec. (1243.08 ticks, tree = 0.01 MB, solutions = 1)

Root node processing (before b&c):
  Real time             =    1.64 sec. (1245.02 ticks)
Parallel b&c, 32 threads:
  Real time             =    0.00 sec. (0.00 ticks)
  Sync time (average)   =    0.00 sec.
  Wait time (average)   =    0.00 sec.
                          ------------
Total (root+branch&cut) =    1.64 sec. (1245.02 ticks)

Solution pool: 1 solution saved.

MIP - Integer optimal solution:  Objective =  2.8187481297e+03
Solution time =    1.66 sec.  Iterations = 4832  Nodes = 0
Deterministic time = 1245.18 ticks  (751.92 ticks/sec)

CPLEX> Incumbent solution written to file 'C:\Users\llavin\Desktop\test826\logs\tmpnz84f1rx.cplex.sol'.
CPLEX> NOTE: no warmstart specified for MIP iteration, default behavior is true
NOTE: resolving with all competitive generators using storage-only solution to warmstart
Solving...

Welcome to IBM(R) ILOG(R) CPLEX(R) Interactive Optimizer 12.9.0.0
  with Simplex, Mixed Integer & Barrier Optimizers
5725-A06 5725-A29 5724-Y48 5724-Y49 5724-Y54 5724-Y55 5655-Y21
Copyright IBM Corp. 1988, 2019.  All Rights Reserved.

Type 'help' for a list of available commands.
Type 'help' followed by a command name for more
information on commands.

CPLEX> Logfile 'cplex.log' closed.
Logfile 'C:\Users\llavin\Desktop\test826\logs\tmpsv3jj68q.cplex.log' open.
CPLEX> New value for parallel optimization mode: -1
CPLEX> New value for emphasis for MIP optimization: 1
CPLEX> New value for mixed integer optimality gap tolerance: 0.01
CPLEX> New value for integrality tolerance: 1e-12
CPLEX> New value for deterministic time limit in ticks: 75000
CPLEX> Problem 'C:\Users\llavin\Desktop\test826\logs\tmpq99dbi7v.pyomo.lp' read.
Read time = 0.24 sec. (13.94 ticks)
CPLEX> MIP start file 'C:\Users\llavin\Desktop\test826\logs\tmppmt09yj2.cplex.mst' read.
CPLEX> Problem name         : C:\Users\llavin\Desktop\test826\logs\tmpq99dbi7v.pyomo.lp
Objective sense      : Maximize
Variables            :   54529  [Nneg: 1,  Box: 22724,  Free: 4464,
                                 Binary: 27340]
Objective nonzeros   :    9676
Linear constraints   :  123253  [Less: 41346,  Greater: 59096,  Equal: 22811]
  Nonzeros           :  293289
  RHS nonzeros       :   67491

Variables            : Min LB: -5000.000        Max UB: 1000000.       
Objective nonzeros   : Min   : 0.3083333        Max   : 786.7333       
Linear constraints   :
  Nonzeros           : Min   : 0.3083333        Max   : 1000000.       
  RHS nonzeros       : Min   : 0.3083333        Max   : 1000000.       
CPLEX> CPXPARAM_Parallel                                -1
CPXPARAM_Emphasis_MIP                            1
CPXPARAM_DetTimeLimit                            75000
CPXPARAM_MIP_Tolerances_MIPGap                   0.01
CPXPARAM_MIP_Tolerances_Integrality              9.9999999999999998e-13
Warning:  No solution found from 1 MIP starts.
Retaining values of one MIP start for possible repair.
Tried aggregator 4 times.
MIP Presolve eliminated 88667 rows and 19643 columns.
MIP Presolve added 3404 rows and 0 columns.
MIP Presolve modified 24902 coefficients.
Aggregator did 13035 substitutions.
Reduced MIP has 24955 rows, 21295 columns, and 71195 nonzeros.
Reduced MIP has 8414 binaries, 0 generals, 0 SOSs, and 0 indicators.
Presolve time = 0.33 sec. (194.38 ticks)
Probing fixed 387 vars, tightened 3949 bounds.
Probing time = 0.06 sec. (19.12 ticks)
Tried aggregator 2 times.
MIP Presolve eliminated 874 rows and 774 columns.
MIP Presolve modified 3037 coefficients.
Aggregator did 24 substitutions.
Reduced MIP has 24057 rows, 20497 columns, and 68601 nonzeros.
Reduced MIP has 8027 binaries, 0 generals, 0 SOSs, and 0 indicators.
Presolve time = 0.11 sec. (87.60 ticks)
Probing fixed 0 vars, tightened 306 bounds.
Probing time = 0.14 sec. (22.94 ticks)
Clique table members: 44785.
MIP emphasis: integer feasibility.
MIP search method: dynamic search.
Parallel mode: opportunistic, using up to 32 threads.
Root relaxation solution time = 0.41 sec. (617.64 ticks)

        Nodes                                         Cuts/
   Node  Left     Objective  IInf  Best Integer    Best Bound    ItCnt     Gap

      0     0   117311.4671   253                 117311.4671     5201         
      0     0   112959.6240   195                   Cuts: 106     5401         
      0     0   111719.7673   191                    Cuts: 80     5464         
      0     0   111719.7673   191                   Covers: 1     5465         
Repair heuristic found nothing.
      0     7   107912.4759   188                 Flowcuts: 2     5517         
Elapsed time = 4.03 sec. (1849.90 ticks, tree = 0.02 MB, solutions = 0)
    692   350    86926.5433   115                 107389.7588     8094         
   1188   835    33546.0371    94                 107389.7588    16283         
   1830  1017    infeasible                       107389.7588    23010         
   2538  1407    -6402.8949    94                 107389.7588    29114         
   3215  1747    -9608.8278    90                 106702.5715    38003         
   3890  1983   -14292.1063    60                 106702.5715    44642         
   4592  2587     -826.8704    41                 106702.5715    61474         
*  4717+ 1698                        18320.9526   106702.5715           482.41%
   5368  1642        cutoff          18320.9526   106702.5715    75555  482.41%
   7971  2612    26514.1045    65    18320.9526   105012.0439   133227  473.18%
Elapsed time = 20.42 sec. (4758.27 ticks, tree = 15.56 MB, solutions = 1)
   8882  3301    46510.2760    59    18320.9526    45059.4062   164987  145.94%
  10239   212    22056.5823    20    18320.9526    43093.2094   171529  135.21%
  12519   126        cutoff          18320.9526    27684.4508   191697   51.11%

GUB cover cuts applied:  1
Cover cuts applied:  4
Implied bound cuts applied:  19
Flow cuts applied:  137
Mixed integer rounding cuts applied:  9
Gomory fractional cuts applied:  8

Root node processing (before b&c):
  Real time             =    2.66 sec. (1815.20 ticks)
Parallel b&c, 32 threads:
  Real time             =   30.63 sec. (8075.99 ticks)
  Sync time (average)   =    1.49 sec.
  Wait time (average)   =    0.23 sec.
                          ------------
Total (root+branch&cut) =   33.28 sec. (9891.19 ticks)

Solution pool: 1 solution saved.

MIP - Integer optimal, tolerance (0.01/1e-06):  Objective =  1.8320952589e+04
Current MIP best bound =  1.8501313206e+04 (gap = 180.361, 0.98%)
Solution time =   33.34 sec.  Iterations = 197245  Nodes = 12774 (44)
Deterministic time = 9891.35 ticks  (296.65 ticks/sec)

CPLEX> Incumbent solution written to file 'C:\Users\llavin\Desktop\test826\logs\tmpyiixd_mb.cplex.sol'.
CPLEX> Exporting results... 
